instances/knapsack/discrete/knapsack_140_8.lp
\ Model knapsack_140_8
\ LP format - for model browsing. Use MPS format to capture full model detail.
\ Signature: 0x9977cb8fbdb63468
Minimize
  - 56 x[0] - 36 x[1] - 50 x[2] - 6 x[3] - 71 x[4] - 7 x[5] - 47 x[6]
   - 33 x[7] - 12 x[8] - 36 x[9] - 9 x[10] - 89 x[11] - 85 x[12] - 44 x[13]
   - 41 x[14] - 46 x[15] - 60 x[16] - 12 x[17] - 48 x[18] - 63 x[19]
   - 99 x[20] - 17 x[21] - 18 x[22] - 74 x[23] - 31 x[24] - 48 x[25]
   - 58 x[26] - 33 x[27] - 12 x[28] - 62 x[29] - 7 x[30] - 82 x[31]
   - 70 x[32] - 77 x[33] - 9 x[34] - 83 x[35] - 75 x[36] - 25 x[37]
   - 12 x[38] - 61 x[39] - 10 x[40] - 83 x[41] - 59 x[42] - 25 x[43]
   - 20 x[44] - 33 x[45] - 86 x[46] - 86 x[47] - 54 x[48] - 23 x[49]
   - 17 x[50] - 96 x[51] - 89 x[52] - 83 x[53] - 14 x[54] - 80 x[55]
   - 64 x[56] - 82 x[57] - 46 x[58] - 93 x[59] - 66 x[60] - 4 x[61]
   - 51 x[62] - 7 x[63] - 72 x[64] - 39 x[65] - 19 x[66] - 67 x[67]
   - 94 x[68] - 15 x[69] - 31 x[70] - 5 x[71] - 11 x[72] - 79 x[73]
   - 60 x[74] - 60 x[75] - 96 x[76] - 51 x[77] - 46 x[78] - 97 x[79]
   - 97 x[80] - 36 x[81] - 83 x[82] - 96 x[83] - 35 x[84] - 58 x[85]
   - 68 x[86] - 21 x[87] - 94 x[88] - 60 x[89] - 96 x[90] - 15 x[91]
   - 31 x[92] - 94 x[93] - 62 x[94] - 48 x[95] - 3 x[96] - 54 x[97]
   - 14 x[98] - 98 x[99] - 6 x[100] - 19 x[101] - 64 x[102] - 43 x[103]
   - 85 x[104] - 41 x[105] - 40 x[106] - 94 x[107] - 12 x[108] - 34 x[109]
   - 47 x[110] - 96 x[111] - 27 x[112] - 85 x[113] - 12 x[114] - 71 x[115]
   - 45 x[116] - 11 x[117] - 36 x[118] - 89 x[119] - 7 x[120] - 4 x[121]
   - 48 x[122] - 41 x[123] - 21 x[124] - 98 x[125] - 62 x[126] - 4 x[127]
   - 85 x[128] - 90 x[129] - 28 x[130] - x[131] - 6 x[132] - 60 x[133]
   - 79 x[134] - 37 x[135] - 62 x[136] - 39 x[137] - 9 x[138] - 75 x[139]
Subject To
 primal_upper: 67 x[0] + 40 x[1] + 50 x[2] + 15 x[3] + 44 x[4] + 37 x[5]
   + 93 x[6] + 31 x[7] + 85 x[8] + 14 x[9] + 51 x[10] + 51 x[11] + 28 x[12]
   + 80 x[13] + 44 x[14] + 40 x[15] + 21 x[16] + 48 x[17] + 33 x[18]
   + 18 x[19] + 13 x[20] + 91 x[21] + 84 x[22] + 62 x[23] + 88 x[24]
   + 40 x[25] + 26 x[26] + 55 x[27] + 17 x[28] + 27 x[29] + 33 x[30]
   + 15 x[31] + 19 x[32] + 9 x[33] + 28 x[34] + 85 x[35] + 96 x[36]
   + 8 x[37] + 72 x[38] + 22 x[39] + 27 x[40] + 53 x[41] + 58 x[42]
   + 65 x[43] + 43 x[44] + 70 x[45] + 13 x[46] + 57 x[47] + 51 x[48]
   + 16 x[49] + 66 x[50] + 88 x[51] + 77 x[52] + 56 x[53] + 16 x[54]
   + 47 x[55] + 5 x[56] + 90 x[57] + 96 x[58] + 58 x[59] + 28 x[60]
   + 74 x[61] + 3 x[62] + 66 x[63] + 11 x[64] + 28 x[65] + 80 x[66]
   + 62 x[67] + 32 x[68] + 65 x[69] + 85 x[70] + 69 x[71] + 62 x[72]
   + 43 x[73] + 35 x[74] + 24 x[75] + 54 x[76] + 71 x[77] + 76 x[78]
   + 74 x[79] + 45 x[80] + 13 x[81] + 54 x[82] + 37 x[83] + 85 x[84]
   + 29 x[85] + 55 x[86] + 56 x[87] + 74 x[88] + 83 x[89] + 80 x[90]
   + 48 x[91] + 84 x[92] + 7 x[93] + 60 x[94] + 21 x[95] + 25 x[96]
   + 4 x[97] + 48 x[98] + 100 x[99] + 69 x[100] + 72 x[101] + 58 x[102]
   + 32 x[103] + 37 x[104] + 74 x[105] + 43 x[106] + 74 x[107] + 86 x[108]
   + 57 x[109] + 98 x[110] + 19 x[111] + 73 x[112] + 93 x[113] + 49 x[114]
   + 38 x[115] + 19 x[116] + 5 x[117] + 93 x[118] + 8 x[119] + 23 x[120]
   + 100 x[121] + 31 x[122] + 34 x[123] + 97 x[124] + 74 x[125] + 71 x[126]
   + 87 x[127] + 66 x[128] + 83 x[129] + 37 x[130] + x[131] + 94 x[132]
   + 80 x[133] + 16 x[134] + 46 x[135] + 33 x[136] + 6 x[137] + 17 x[138]
   + 40 x[139] + 6.7 r[0] + 4 r[1] + 5 r[2] + 1.5 r[3] + 4.4 r[4]
   + 3.7 r[5] + 9.3 r[6] + 3.1 r[7] + 8.5 r[8] + 1.4 r[9] + 5.1 r[10]
   + 5.1 r[11] + 2.8 r[12] + 8 r[13] + 4.4 r[14] + 4 r[15] + 2.1 r[16]
   + 4.8 r[17] + 3.3 r[18] + 1.8 r[19] + 1.3 r[20] + 9.1 r[21] + 8.4 r[22]
   + 6.2 r[23] + 8.8 r[24] + 4 r[25] + 2.6 r[26] + 5.5 r[27] + 1.7 r[28]
   + 2.7 r[29] + 3.3 r[30] + 1.5 r[31] + 1.9 r[32] + 0.9 r[33] + 2.8 r[34]
   + 8.5 r[35] + 9.6 r[36] + 0.8 r[37] + 7.2 r[38] + 2.2 r[39] + 2.7 r[40]
   + 5.3 r[41] + 5.8 r[42] + 6.5 r[43] + 4.3 r[44] + 7 r[45] + 1.3 r[46]
   + 5.7 r[47] + 5.1 r[48] + 1.6 r[49] + 6.6 r[50] + 8.8 r[51] + 7.7 r[52]
   + 5.6 r[53] + 1.6 r[54] + 4.7 r[55] + 0.5 r[56] + 9 r[57] + 9.6 r[58]
   + 5.8 r[59] + 2.8 r[60] + 7.4 r[61] + 0.3 r[62] + 6.6 r[63] + 1.1 r[64]
   + 2.8 r[65] + 8 r[66] + 6.2 r[67] + 3.2 r[68] + 6.5 r[69] + 8.5 r[70]
   + 6.9 r[71] + 6.2 r[72] + 4.3 r[73] + 3.5 r[74] + 2.4 r[75] + 5.4 r[76]
   + 7.1 r[77] + 7.6 r[78] + 7.4 r[79] + 4.5 r[80] + 1.3 r[81] + 5.4 r[82]
   + 3.7 r[83] + 8.5 r[84] + 2.9 r[85] + 5.5 r[86] + 5.6 r[87] + 7.4 r[88]
   + 8.3 r[89] + 8 r[90] + 4.8 r[91] + 8.4 r[92] + 0.7 r[93] + 6 r[94]
   + 2.1 r[95] + 2.5 r[96] + 0.4 r[97] + 4.8 r[98] + 10 r[99] + 6.9 r[100]
   + 7.2 r[101] + 5.8 r[102] + 3.2 r[103] + 3.7 r[104] + 7.4 r[105]
   + 4.3 r[106] + 7.4 r[107] + 8.6 r[108] + 5.7 r[109] + 9.8 r[110]
   + 1.9 r[111] + 7.3 r[112] + 9.3 r[113] + 4.9 r[114] + 3.8 r[115]
   + 1.9 r[116] + 0.5 r[117] + 9.3 r[118] + 0.8 r[119] + 2.3 r[120]
   + 10 r[121] + 3.1 r[122] + 3.4 r[123] + 9.7 r[124] + 7.4 r[125]
   + 7.1 r[126] + 8.7 r[127] + 6.6 r[128] + 8.3 r[129] + 3.7 r[130]
   + 0.1 r[131] + 9.4 r[132] + 8 r[133] + 1.6 r[134] + 4.6 r[135]
   + 3.3 r[136] + 0.6 r[137] + 1.7 r[138] + 4 r[139] <= 668
 primal_lower: 4.583331608832159 x[0] + 3.744157083017314 x[1]
   + 4.091496429956063 x[2] + 3.147673900338457 x[3]
   + 2.950116043040715 x[4] + 3.663988871378883 x[5]
   + 1.070973688090846 x[6] + 0.9222972858092027 x[7]
   + 1.353938768687794 x[8] + 1.565684216632631 x[9]
   + 1.361745437159388 x[10] + 2.264197791279632 x[11]
   + 4.078530502527814 x[12] + 1.923353515240269 x[13]
   + 0.4883777092607786 x[14] + 0.3004300291311212 x[15]
   + 2.790050978252769 x[16] + 2.780982121607973 x[17]
   + 3.897673633228913 x[18] + 3.730416704541997 x[19]
   + 3.257365930920531 x[20] + 2.946432086676764 x[21]
   + 2.827959174579271 x[22] + 0.7255329041997854 x[23]
   + 3.606063159888027 x[24] + 2.965477274739582 x[25]
   + 1.919829832894262 x[26] + 1.670282964456129 x[27]
   + 0.2705708377742317 x[28] + 2.611539578260845 x[29]
   + 1.846187174363389 x[30] + 1.085972248422336 x[31]
   + 1.860660769680915 x[32] + 0.1164684136727317 x[33]
   + 3.398678006706543 x[34] + 4.28542203527354 x[35]
   + 3.815190982808494 x[36] + 2.557027097023302 x[37]
   + 1.970627404241764 x[38] + 4.546191102307414 x[39]
   + 4.050107873623873 x[40] + 4.369719629536793 x[41]
   + 1.842300311300967 x[42] + 3.857596828796275 x[43]
   + 1.426561171142249 x[44] + 2.873420698954428 x[45]
   + 0.5028916310618495 x[46] + 2.45640154175192 x[47]
   + 1.322967616589425 x[48] + 1.141285494379218 x[49]
   + 3.787744752378492 x[50] + 1.467755070881021 x[51]
   + 3.263193624102469 x[52] + 4.558173659207784 x[53]
   + 2.20094336376882 x[54] + 4.379057416239808 x[55]
   + 0.9833214835066486 x[56] + 4.505654427096591 x[57]
   + 3.455534050671952 x[58] + 1.41613907051759 x[59]
   + 0.1751741929382753 x[60] + 4.20032758201769 x[61]
   + 1.275518648799583 x[62] + 2.719890841383312 x[63]
   + 0.0795545259901369 x[64] + 3.623347289546819 x[65]
   + 3.730631645862678 x[66] + 2.634338778027939 x[67]
   + 3.933986931642675 x[68] + 1.113912380681773 x[69]
   + 0.0539265459049969 x[70] + 3.103979626495969 x[71]
   + 4.551576721504551 x[72] + 0.2842755797681126 x[73]
   + 2.432909502771102 x[74] + 3.700625488874115 x[75]
   + 3.566582564184938 x[76] + 1.230712279965589 x[77]
   + 0.5950900352220097 x[78] + 0.00230860713314382 x[79]
   + 0.7045369694251741 x[80] + 2.88311648567298 x[81]
   + 3.823781664251479 x[82] + 1.36685560162524 x[83]
   + 3.24417549914605 x[84] + 0.4679107094215722 x[85]
   + 2.834441439143697 x[86] + 3.131105863546448 x[87]
   + 3.128343188278477 x[88] + 0.0924315828999593 x[89]
   + 0.5483910405707453 x[90] + 2.761419653682519 x[91]
   + 1.862669702540888 x[92] + 2.439557627542316 x[93]
   + 0.4306100510663725 x[94] + 1.422607426854086 x[95]
   + 0.6750366258271144 x[96] + 4.23429016009932 x[97]
   + 2.855234994660896 x[98] + 3.710260932538309 x[99]
   + 2.768181043473028 x[100] + 1.779213106574643 x[101]
   + 3.960925127880101 x[102] + 3.691242940380862 x[103]
   + 2.811705183910208 x[104] + 2.534370361726567 x[105]
   + 1.865419788524827 x[106] + 2.157585187248094 x[107]
   + 2.54641274905226 x[108] + 2.955594084416244 x[109]
   + 1.723550632306409 x[110] + 1.894381351039842 x[111]
   + 4.574369121882999 x[112] + 3.801404418294106 x[113]
   + 2.445457208662877 x[114] + 3.918741042135182 x[115]
   + 3.859823138420517 x[116] + 0.4933457666879315 x[117]
   + 4.369824479592388 x[118] + 2.724154975951945 x[119]
   + 0.6417725858630828 x[120] + 0.5768452590128544 x[121]
   + 0.24586813448919 x[122] + 1.205537628358919 x[123]
   + 2.186110005574513 x[124] + 3.757689946308996 x[125]
   + 3.970523976647485 x[126] + 1.96879114761111 x[127]
   + 2.24303848361669 x[128] + 0.5198774829636685 x[129]
   + 3.675884176957856 x[130] + 2.053855476499597 x[131]
   + 3.36353787211123 x[132] + 3.328609088304988 x[133]
   + 4.059940745385405 x[134] + 2.20023940892935 x[135]
   + 0.1174798269361175 x[136] + 0.7588318074812963 x[137]
   + 2.821970482100049 x[138] + 0.5139355916382705 x[139] + 41 u[0]
   + 69 u[1] + 35 u[2] + 48 u[3] + 9 u[4] + 35 u[5] + 54 u[6] + 73 u[7]
   + 82 u[8] + 11 u[9] + 5 u[10] + 48 u[11] + 45 u[12] + 21 u[13]
   + 22 u[14] + 42 u[15] + 14 u[16] + 61 u[17] + 66 u[18] + 19 u[19]
   + 62 u[20] + 57 u[21] + 69 u[22] + 56 u[23] + 10 u[24] + 33 u[25]
   + 71 u[26] + 57 u[27] + 39 u[28] + 64 u[29] + 51 u[30] + 21 u[31]
   + 53 u[32] + 42 u[33] + u[34] + 66 u[35] + 61 u[36] + 98 u[37]
   + 45 u[38] + 20 u[39] + 84 u[40] + 71 u[41] + 63 u[42] + 31 u[43]
   + 28 u[44] + 64 u[45] + 51 u[46] + 43 u[47] + 52 u[48] + 73 u[49]
   + 76 u[50] + 77 u[51] + 54 u[52] + 29 u[53] + 94 u[54] + 73 u[55]
   + 90 u[56] + 28 u[57] + 5 u[58] + 23 u[59] + 18 u[60] + 32 u[61]
   + 73 u[62] + 20 u[63] + 81 u[64] + 9 u[65] + 38 u[66] + 16 u[67]
   + 17 u[68] + 99 u[69] + 99 u[70] + 43 u[71] + 27 u[72] + 12 u[73]
   + 13 u[74] + 14 u[75] + 16 u[76] + 64 u[77] + 90 u[78] + 12 u[79]
   + 3 u[80] + 95 u[81] + 48 u[82] + 35 u[83] + 7 u[84] + 51 u[85] + u[86]
   + 53 u[87] + 91 u[88] + 100 u[89] + 18 u[90] + 90 u[91] + 90 u[92]
   + 41 u[93] + 13 u[94] + 58 u[95] + 82 u[96] + 14 u[97] + 89 u[98]
   + 69 u[99] + 90 u[100] + 49 u[101] + 67 u[102] + 21 u[103] + 6 u[104]
   + 35 u[105] + 88 u[106] + 80 u[107] + 12 u[108] + 22 u[109] + 92 u[110]
   + 8 u[111] + 50 u[112] + 66 u[113] + 58 u[114] + 56 u[115] + 76 u[116]
   + 14 u[117] + 2 u[118] + 90 u[119] + 73 u[120] + 50 u[121] + 77 u[122]
   + 28 u[123] + 10 u[124] + 72 u[125] + 69 u[126] + 9 u[127] + 28 u[128]
   + 48 u[129] + 95 u[130] + 70 u[131] + 84 u[132] + 53 u[133] + 82 u[134]
   + 91 u[135] + 14 u[136] + 4 u[137] + 19 u[138] + 81 u[139] <= 73988
 mccormick1[0]: - u[0] + r[0] <= 0
 mccormick1[1]: - u[1] + r[1] <= 0
 mccormick1[2]: - u[2] + r[2] <= 0
 mccormick1[3]: - u[3] + r[3] <= 0
 mccormick1[4]: - u[4] + r[4] <= 0
 mccormick1[5]: - u[5] + r[5] <= 0
 mccormick1[6]: - u[6] + r[6] <= 0
 mccormick1[7]: - u[7] + r[7] <= 0
 mccormick1[8]: - u[8] + r[8] <= 0
 mccormick1[9]: - u[9] + r[9] <= 0
 mccormick1[10]: - u[10] + r[10] <= 0
 mccormick1[11]: - u[11] + r[11] <= 0
 mccormick1[12]: - u[12] + r[12] <= 0
 mccormick1[13]: - u[13] + r[13] <= 0
 mccormick1[14]: - u[14] + r[14] <= 0
 mccormick1[15]: - u[15] + r[15] <= 0
 mccormick1[16]: - u[16] + r[16] <= 0
 mccormick1[17]: - u[17] + r[17] <= 0
 mccormick1[18]: - u[18] + r[18] <= 0
 mccormick1[19]: - u[19] + r[19] <= 0
 mccormick1[20]: - u[20] + r[20] <= 0
 mccormick1[21]: - u[21] + r[21] <= 0
 mccormick1[22]: - u[22] + r[22] <= 0
 mccormick1[23]: - u[23] + r[23] <= 0
 mccormick1[24]: - u[24] + r[24] <= 0
 mccormick1[25]: - u[25] + r[25] <= 0
 mccormick1[26]: - u[26] + r[26] <= 0
 mccormick1[27]: - u[27] + r[27] <= 0
 mccormick1[28]: - u[28] + r[28] <= 0
 mccormick1[29]: - u[29] + r[29] <= 0
 mccormick1[30]: - u[30] + r[30] <= 0
 mccormick1[31]: - u[31] + r[31] <= 0
 mccormick1[32]: - u[32] + r[32] <= 0
 mccormick1[33]: - u[33] + r[33] <= 0
 mccormick1[34]: - u[34] + r[34] <= 0
 mccormick1[35]: - u[35] + r[35] <= 0
 mccormick1[36]: - u[36] + r[36] <= 0
 mccormick1[37]: - u[37] + r[37] <= 0
 mccormick1[38]: - u[38] + r[38] <= 0
 mccormick1[39]: - u[39] + r[39] <= 0
 mccormick1[40]: - u[40] + r[40] <= 0
 mccormick1[41]: - u[41] + r[41] <= 0
 mccormick1[42]: - u[42] + r[42] <= 0
 mccormick1[43]: - u[43] + r[43] <= 0
 mccormick1[44]: - u[44] + r[44] <= 0
 mccormick1[45]: - u[45] + r[45] <= 0
 mccormick1[46]: - u[46] + r[46] <= 0
 mccormick1[47]: - u[47] + r[47] <= 0
 mccormick1[48]: - u[48] + r[48] <= 0
 mccormick1[49]: - u[49] + r[49] <= 0
 mccormick1[50]: - u[50] + r[50] <= 0
 mccormick1[51]: - u[51] + r[51] <= 0
 mccormick1[52]: - u[52] + r[52] <= 0
 mccormick1[53]: - u[53] + r[53] <= 0
 mccormick1[54]: - u[54] + r[54] <= 0
 mccormick1[55]: - u[55] + r[55] <= 0
 mccormick1[56]: - u[56] + r[56] <= 0
 mccormick1[57]: - u[57] + r[57] <= 0
 mccormick1[58]: - u[58] + r[58] <= 0
 mccormick1[59]: - u[59] + r[59] <= 0
 mccormick1[60]: - u[60] + r[60] <= 0
 mccormick1[61]: - u[61] + r[61] <= 0
 mccormick1[62]: - u[62] + r[62] <= 0
 mccormick1[63]: - u[63] + r[63] <= 0
 mccormick1[64]: - u[64] + r[64] <= 0
 mccormick1[65]: - u[65] + r[65] <= 0
 mccormick1[66]: - u[66] + r[66] <= 0
 mccormick1[67]: - u[67] + r[67] <= 0
 mccormick1[68]: - u[68] + r[68] <= 0
 mccormick1[69]: - u[69] + r[69] <= 0
 mccormick1[70]: - u[70] + r[70] <= 0
 mccormick1[71]: - u[71] + r[71] <= 0
 mccormick1[72]: - u[72] + r[72] <= 0
 mccormick1[73]: - u[73] + r[73] <= 0
 mccormick1[74]: - u[74] + r[74] <= 0
 mccormick1[75]: - u[75] + r[75] <= 0
 mccormick1[76]: - u[76] + r[76] <= 0
 mccormick1[77]: - u[77] + r[77] <= 0
 mccormick1[78]: - u[78] + r[78] <= 0
 mccormick1[79]: - u[79] + r[79] <= 0
 mccormick1[80]: - u[80] + r[80] <= 0
 mccormick1[81]: - u[81] + r[81] <= 0
 mccormick1[82]: - u[82] + r[82] <= 0
 mccormick1[83]: - u[83] + r[83] <= 0
 mccormick1[84]: - u[84] + r[84] <= 0
 mccormick1[85]: - u[85] + r[85] <= 0
 mccormick1[86]: - u[86] + r[86] <= 0
 mccormick1[87]: - u[87] + r[87] <= 0
 mccormick1[88]: - u[88] + r[88] <= 0
 mccormick1[89]: - u[89] + r[89] <= 0
 mccormick1[90]: - u[90] + r[90] <= 0
 mccormick1[91]: - u[91] + r[91] <= 0
 mccormick1[92]: - u[92] + r[92] <= 0
 mccormick1[93]: - u[93] + r[93] <= 0
 mccormick1[94]: - u[94] + r[94] <= 0
 mccormick1[95]: - u[95] + r[95] <= 0
 mccormick1[96]: - u[96] + r[96] <= 0
 mccormick1[97]: - u[97] + r[97] <= 0
 mccormick1[98]: - u[98] + r[98] <= 0
 mccormick1[99]: - u[99] + r[99] <= 0
 mccormick1[100]: - u[100] + r[100] <= 0
 mccormick1[101]: - u[101] + r[101] <= 0
 mccormick1[102]: - u[102] + r[102] <= 0
 mccormick1[103]: - u[103] + r[103] <= 0
 mccormick1[104]: - u[104] + r[104] <= 0
 mccormick1[105]: - u[105] + r[105] <= 0
 mccormick1[106]: - u[106] + r[106] <= 0
 mccormick1[107]: - u[107] + r[107] <= 0
 mccormick1[108]: - u[108] + r[108] <= 0
 mccormick1[109]: - u[109] + r[109] <= 0
 mccormick1[110]: - u[110] + r[110] <= 0
 mccormick1[111]: - u[111] + r[111] <= 0
 mccormick1[112]: - u[112] + r[112] <= 0
 mccormick1[113]: - u[113] + r[113] <= 0
 mccormick1[114]: - u[114] + r[114] <= 0
 mccormick1[115]: - u[115] + r[115] <= 0
 mccormick1[116]: - u[116] + r[116] <= 0
 mccormick1[117]: - u[117] + r[117] <= 0
 mccormick1[118]: - u[118] + r[118] <= 0
 mccormick1[119]: - u[119] + r[119] <= 0
 mccormick1[120]: - u[120] + r[120] <= 0
 mccormick1[121]: - u[121] + r[121] <= 0
 mccormick1[122]: - u[122] + r[122] <= 0
 mccormick1[123]: - u[123] + r[123] <= 0
 mccormick1[124]: - u[124] + r[124] <= 0
 mccormick1[125]: - u[125] + r[125] <= 0
 mccormick1[126]: - u[126] + r[126] <= 0
 mccormick1[127]: - u[127] + r[127] <= 0
 mccormick1[128]: - u[128] + r[128] <= 0
 mccormick1[129]: - u[129] + r[129] <= 0
 mccormick1[130]: - u[130] + r[130] <= 0
 mccormick1[131]: - u[131] + r[131] <= 0
 mccormick1[132]: - u[132] + r[132] <= 0
 mccormick1[133]: - u[133] + r[133] <= 0
 mccormick1[134]: - u[134] + r[134] <= 0
 mccormick1[135]: - u[135] + r[135] <= 0
 mccormick1[136]: - u[136] + r[136] <= 0
 mccormick1[137]: - u[137] + r[137] <= 0
 mccormick1[138]: - u[138] + r[138] <= 0
 mccormick1[139]: - u[139] + r[139] <= 0
 mccormick2[0]: - x[0] + r[0] <= 0
 mccormick2[1]: - x[1] + r[1] <= 0
 mccormick2[2]: - x[2] + r[2] <= 0
 mccormick2[3]: - x[3] + r[3] <= 0
 mccormick2[4]: - x[4] + r[4] <= 0
 mccormick2[5]: - x[5] + r[5] <= 0
 mccormick2[6]: - x[6] + r[6] <= 0
 mccormick2[7]: - x[7] + r[7] <= 0
 mccormick2[8]: - x[8] + r[8] <= 0
 mccormick2[9]: - x[9] + r[9] <= 0
 mccormick2[10]: - x[10] + r[10] <= 0
 mccormick2[11]: - x[11] + r[11] <= 0
 mccormick2[12]: - x[12] + r[12] <= 0
 mccormick2[13]: - x[13] + r[13] <= 0
 mccormick2[14]: - x[14] + r[14] <= 0
 mccormick2[15]: - x[15] + r[15] <= 0
 mccormick2[16]: - x[16] + r[16] <= 0
 mccormick2[17]: - x[17] + r[17] <= 0
 mccormick2[18]: - x[18] + r[18] <= 0
 mccormick2[19]: - x[19] + r[19] <= 0
 mccormick2[20]: - x[20] + r[20] <= 0
 mccormick2[21]: - x[21] + r[21] <= 0
 mccormick2[22]: - x[22] + r[22] <= 0
 mccormick2[23]: - x[23] + r[23] <= 0
 mccormick2[24]: - x[24] + r[24] <= 0
 mccormick2[25]: - x[25] + r[25] <= 0
 mccormick2[26]: - x[26] + r[26] <= 0
 mccormick2[27]: - x[27] + r[27] <= 0
 mccormick2[28]: - x[28] + r[28] <= 0
 mccormick2[29]: - x[29] + r[29] <= 0
 mccormick2[30]: - x[30] + r[30] <= 0
 mccormick2[31]: - x[31] + r[31] <= 0
 mccormick2[32]: - x[32] + r[32] <= 0
 mccormick2[33]: - x[33] + r[33] <= 0
 mccormick2[34]: - x[34] + r[34] <= 0
 mccormick2[35]: - x[35] + r[35] <= 0
 mccormick2[36]: - x[36] + r[36] <= 0
 mccormick2[37]: - x[37] + r[37] <= 0
 mccormick2[38]: - x[38] + r[38] <= 0
 mccormick2[39]: - x[39] + r[39] <= 0
 mccormick2[40]: - x[40] + r[40] <= 0
 mccormick2[41]: - x[41] + r[41] <= 0
 mccormick2[42]: - x[42] + r[42] <= 0
 mccormick2[43]: - x[43] + r[43] <= 0
 mccormick2[44]: - x[44] + r[44] <= 0
 mccormick2[45]: - x[45] + r[45] <= 0
 mccormick2[46]: - x[46] + r[46] <= 0
 mccormick2[47]: - x[47] + r[47] <= 0
 mccormick2[48]: - x[48] + r[48] <= 0
 mccormick2[49]: - x[49] + r[49] <= 0
 mccormick2[50]: - x[50] + r[50] <= 0
 mccormick2[51]: - x[51] + r[51] <= 0
 mccormick2[52]: - x[52] + r[52] <= 0
 mccormick2[53]: - x[53] + r[53] <= 0
 mccormick2[54]: - x[54] + r[54] <= 0
 mccormick2[55]: - x[55] + r[55] <= 0
 mccormick2[56]: - x[56] + r[56] <= 0
 mccormick2[57]: - x[57] + r[57] <= 0
 mccormick2[58]: - x[58] + r[58] <= 0
 mccormick2[59]: - x[59] + r[59] <= 0
 mccormick2[60]: - x[60] + r[60] <= 0
 mccormick2[61]: - x[61] + r[61] <= 0
 mccormick2[62]: - x[62] + r[62] <= 0
 mccormick2[63]: - x[63] + r[63] <= 0
 mccormick2[64]: - x[64] + r[64] <= 0
 mccormick2[65]: - x[65] + r[65] <= 0
 mccormick2[66]: - x[66] + r[66] <= 0
 mccormick2[67]: - x[67] + r[67] <= 0
 mccormick2[68]: - x[68] + r[68] <= 0
 mccormick2[69]: - x[69] + r[69] <= 0
 mccormick2[70]: - x[70] + r[70] <= 0
 mccormick2[71]: - x[71] + r[71] <= 0
 mccormick2[72]: - x[72] + r[72] <= 0
 mccormick2[73]: - x[73] + r[73] <= 0
 mccormick2[74]: - x[74] + r[74] <= 0
 mccormick2[75]: - x[75] + r[75] <= 0
 mccormick2[76]: - x[76] + r[76] <= 0
 mccormick2[77]: - x[77] + r[77] <= 0
 mccormick2[78]: - x[78] + r[78] <= 0
 mccormick2[79]: - x[79] + r[79] <= 0
 mccormick2[80]: - x[80] + r[80] <= 0
 mccormick2[81]: - x[81] + r[81] <= 0
 mccormick2[82]: - x[82] + r[82] <= 0
 mccormick2[83]: - x[83] + r[83] <= 0
 mccormick2[84]: - x[84] + r[84] <= 0
 mccormick2[85]: - x[85] + r[85] <= 0
 mccormick2[86]: - x[86] + r[86] <= 0
 mccormick2[87]: - x[87] + r[87] <= 0
 mccormick2[88]: - x[88] + r[88] <= 0
 mccormick2[89]: - x[89] + r[89] <= 0
 mccormick2[90]: - x[90] + r[90] <= 0
 mccormick2[91]: - x[91] + r[91] <= 0
 mccormick2[92]: - x[92] + r[92] <= 0
 mccormick2[93]: - x[93] + r[93] <= 0
 mccormick2[94]: - x[94] + r[94] <= 0
 mccormick2[95]: - x[95] + r[95] <= 0
 mccormick2[96]: - x[96] + r[96] <= 0
 mccormick2[97]: - x[97] + r[97] <= 0
 mccormick2[98]: - x[98] + r[98] <= 0
 mccormick2[99]: - x[99] + r[99] <= 0
 mccormick2[100]: - x[100] + r[100] <= 0
 mccormick2[101]: - x[101] + r[101] <= 0
 mccormick2[102]: - x[102] + r[102] <= 0
 mccormick2[103]: - x[103] + r[103] <= 0
 mccormick2[104]: - x[104] + r[104] <= 0
 mccormick2[105]: - x[105] + r[105] <= 0
 mccormick2[106]: - x[106] + r[106] <= 0
 mccormick2[107]: - x[107] + r[107] <= 0
 mccormick2[108]: - x[108] + r[108] <= 0
 mccormick2[109]: - x[109] + r[109] <= 0
 mccormick2[110]: - x[110] + r[110] <= 0
 mccormick2[111]: - x[111] + r[111] <= 0
 mccormick2[112]: - x[112] + r[112] <= 0
 mccormick2[113]: - x[113] + r[113] <= 0
 mccormick2[114]: - x[114] + r[114] <= 0
 mccormick2[115]: - x[115] + r[115] <= 0
 mccormick2[116]: - x[116] + r[116] <= 0
 mccormick2[117]: - x[117] + r[117] <= 0
 mccormick2[118]: - x[118] + r[118] <= 0
 mccormick2[119]: - x[119] + r[119] <= 0
 mccormick2[120]: - x[120] + r[120] <= 0
 mccormick2[121]: - x[121] + r[121] <= 0
 mccormick2[122]: - x[122] + r[122] <= 0
 mccormick2[123]: - x[123] + r[123] <= 0
 mccormick2[124]: - x[124] + r[124] <= 0
 mccormick2[125]: - x[125] + r[125] <= 0
 mccormick2[126]: - x[126] + r[126] <= 0
 mccormick2[127]: - x[127] + r[127] <= 0
 mccormick2[128]: - x[128] + r[128] <= 0
 mccormick2[129]: - x[129] + r[129] <= 0
 mccormick2[130]: - x[130] + r[130] <= 0
 mccormick2[131]: - x[131] + r[131] <= 0
 mccormick2[132]: - x[132] + r[132] <= 0
 mccormick2[133]: - x[133] + r[133] <= 0
 mccormick2[134]: - x[134] + r[134] <= 0
 mccormick2[135]: - x[135] + r[135] <= 0
 mccormick2[136]: - x[136] + r[136] <= 0
 mccormick2[137]: - x[137] + r[137] <= 0
 mccormick2[138]: - x[138] + r[138] <= 0
 mccormick2[139]: - x[139] + r[139] <= 0
 mccormick3[0]: x[0] + u[0] - r[0] <= 1
 mccormick3[1]: x[1] + u[1] - r[1] <= 1
 mccormick3[2]: x[2] + u[2] - r[2] <= 1
 mccormick3[3]: x[3] + u[3] - r[3] <= 1
 mccormick3[4]: x[4] + u[4] - r[4] <= 1
 mccormick3[5]: x[5] + u[5] - r[5] <= 1
 mccormick3[6]: x[6] + u[6] - r[6] <= 1
 mccormick3[7]: x[7] + u[7] - r[7] <= 1
 mccormick3[8]: x[8] + u[8] - r[8] <= 1
 mccormick3[9]: x[9] + u[9] - r[9] <= 1
 mccormick3[10]: x[10] + u[10] - r[10] <= 1
 mccormick3[11]: x[11] + u[11] - r[11] <= 1
 mccormick3[12]: x[12] + u[12] - r[12] <= 1
 mccormick3[13]: x[13] + u[13] - r[13] <= 1
 mccormick3[14]: x[14] + u[14] - r[14] <= 1
 mccormick3[15]: x[15] + u[15] - r[15] <= 1
 mccormick3[16]: x[16] + u[16] - r[16] <= 1
 mccormick3[17]: x[17] + u[17] - r[17] <= 1
 mccormick3[18]: x[18] + u[18] - r[18] <= 1
 mccormick3[19]: x[19] + u[19] - r[19] <= 1
 mccormick3[20]: x[20] + u[20] - r[20] <= 1
 mccormick3[21]: x[21] + u[21] - r[21] <= 1
 mccormick3[22]: x[22] + u[22] - r[22] <= 1
 mccormick3[23]: x[23] + u[23] - r[23] <= 1
 mccormick3[24]: x[24] + u[24] - r[24] <= 1
 mccormick3[25]: x[25] + u[25] - r[25] <= 1
 mccormick3[26]: x[26] + u[26] - r[26] <= 1
 mccormick3[27]: x[27] + u[27] - r[27] <= 1
 mccormick3[28]: x[28] + u[28] - r[28] <= 1
 mccormick3[29]: x[29] + u[29] - r[29] <= 1
 mccormick3[30]: x[30] + u[30] - r[30] <= 1
 mccormick3[31]: x[31] + u[31] - r[31] <= 1
 mccormick3[32]: x[32] + u[32] - r[32] <= 1
 mccormick3[33]: x[33] + u[33] - r[33] <= 1
 mccormick3[34]: x[34] + u[34] - r[34] <= 1
 mccormick3[35]: x[35] + u[35] - r[35] <= 1
 mccormick3[36]: x[36] + u[36] - r[36] <= 1
 mccormick3[37]: x[37] + u[37] - r[37] <= 1
 mccormick3[38]: x[38] + u[38] - r[38] <= 1
 mccormick3[39]: x[39] + u[39] - r[39] <= 1
 mccormick3[40]: x[40] + u[40] - r[40] <= 1
 mccormick3[41]: x[41] + u[41] - r[41] <= 1
 mccormick3[42]: x[42] + u[42] - r[42] <= 1
 mccormick3[43]: x[43] + u[43] - r[43] <= 1
 mccormick3[44]: x[44] + u[44] - r[44] <= 1
 mccormick3[45]: x[45] + u[45] - r[45] <= 1
 mccormick3[46]: x[46] + u[46] - r[46] <= 1
 mccormick3[47]: x[47] + u[47] - r[47] <= 1
 mccormick3[48]: x[48] + u[48] - r[48] <= 1
 mccormick3[49]: x[49] + u[49] - r[49] <= 1
 mccormick3[50]: x[50] + u[50] - r[50] <= 1
 mccormick3[51]: x[51] + u[51] - r[51] <= 1
 mccormick3[52]: x[52] + u[52] - r[52] <= 1
 mccormick3[53]: x[53] + u[53] - r[53] <= 1
 mccormick3[54]: x[54] + u[54] - r[54] <= 1
 mccormick3[55]: x[55] + u[55] - r[55] <= 1
 mccormick3[56]: x[56] + u[56] - r[56] <= 1
 mccormick3[57]: x[57] + u[57] - r[57] <= 1
 mccormick3[58]: x[58] + u[58] - r[58] <= 1
 mccormick3[59]: x[59] + u[59] - r[59] <= 1
 mccormick3[60]: x[60] + u[60] - r[60] <= 1
 mccormick3[61]: x[61] + u[61] - r[61] <= 1
 mccormick3[62]: x[62] + u[62] - r[62] <= 1
 mccormick3[63]: x[63] + u[63] - r[63] <= 1
 mccormick3[64]: x[64] + u[64] - r[64] <= 1
 mccormick3[65]: x[65] + u[65] - r[65] <= 1
 mccormick3[66]: x[66] + u[66] - r[66] <= 1
 mccormick3[67]: x[67] + u[67] - r[67] <= 1
 mccormick3[68]: x[68] + u[68] - r[68] <= 1
 mccormick3[69]: x[69] + u[69] - r[69] <= 1
 mccormick3[70]: x[70] + u[70] - r[70] <= 1
 mccormick3[71]: x[71] + u[71] - r[71] <= 1
 mccormick3[72]: x[72] + u[72] - r[72] <= 1
 mccormick3[73]: x[73] + u[73] - r[73] <= 1
 mccormick3[74]: x[74] + u[74] - r[74] <= 1
 mccormick3[75]: x[75] + u[75] - r[75] <= 1
 mccormick3[76]: x[76] + u[76] - r[76] <= 1
 mccormick3[77]: x[77] + u[77] - r[77] <= 1
 mccormick3[78]: x[78] + u[78] - r[78] <= 1
 mccormick3[79]: x[79] + u[79] - r[79] <= 1
 mccormick3[80]: x[80] + u[80] - r[80] <= 1
 mccormick3[81]: x[81] + u[81] - r[81] <= 1
 mccormick3[82]: x[82] + u[82] - r[82] <= 1
 mccormick3[83]: x[83] + u[83] - r[83] <= 1
 mccormick3[84]: x[84] + u[84] - r[84] <= 1
 mccormick3[85]: x[85] + u[85] - r[85] <= 1
 mccormick3[86]: x[86] + u[86] - r[86] <= 1
 mccormick3[87]: x[87] + u[87] - r[87] <= 1
 mccormick3[88]: x[88] + u[88] - r[88] <= 1
 mccormick3[89]: x[89] + u[89] - r[89] <= 1
 mccormick3[90]: x[90] + u[90] - r[90] <= 1
 mccormick3[91]: x[91] + u[91] - r[91] <= 1
 mccormick3[92]: x[92] + u[92] - r[92] <= 1
 mccormick3[93]: x[93] + u[93] - r[93] <= 1
 mccormick3[94]: x[94] + u[94] - r[94] <= 1
 mccormick3[95]: x[95] + u[95] - r[95] <= 1
 mccormick3[96]: x[96] + u[96] - r[96] <= 1
 mccormick3[97]: x[97] + u[97] - r[97] <= 1
 mccormick3[98]: x[98] + u[98] - r[98] <= 1
 mccormick3[99]: x[99] + u[99] - r[99] <= 1
 mccormick3[100]: x[100] + u[100] - r[100] <= 1
 mccormick3[101]: x[101] + u[101] - r[101] <= 1
 mccormick3[102]: x[102] + u[102] - r[102] <= 1
 mccormick3[103]: x[103] + u[103] - r[103] <= 1
 mccormick3[104]: x[104] + u[104] - r[104] <= 1
 mccormick3[105]: x[105] + u[105] - r[105] <= 1
 mccormick3[106]: x[106] + u[106] - r[106] <= 1
 mccormick3[107]: x[107] + u[107] - r[107] <= 1
 mccormick3[108]: x[108] + u[108] - r[108] <= 1
 mccormick3[109]: x[109] + u[109] - r[109] <= 1
 mccormick3[110]: x[110] + u[110] - r[110] <= 1
 mccormick3[111]: x[111] + u[111] - r[111] <= 1
 mccormick3[112]: x[112] + u[112] - r[112] <= 1
 mccormick3[113]: x[113] + u[113] - r[113] <= 1
 mccormick3[114]: x[114] + u[114] - r[114] <= 1
 mccormick3[115]: x[115] + u[115] - r[115] <= 1
 mccormick3[116]: x[116] + u[116] - r[116] <= 1
 mccormick3[117]: x[117] + u[117] - r[117] <= 1
 mccormick3[118]: x[118] + u[118] - r[118] <= 1
 mccormick3[119]: x[119] + u[119] - r[119] <= 1
 mccormick3[120]: x[120] + u[120] - r[120] <= 1
 mccormick3[121]: x[121] + u[121] - r[121] <= 1
 mccormick3[122]: x[122] + u[122] - r[122] <= 1
 mccormick3[123]: x[123] + u[123] - r[123] <= 1
 mccormick3[124]: x[124] + u[124] - r[124] <= 1
 mccormick3[125]: x[125] + u[125] - r[125] <= 1
 mccormick3[126]: x[126] + u[126] - r[126] <= 1
 mccormick3[127]: x[127] + u[127] - r[127] <= 1
 mccormick3[128]: x[128] + u[128] - r[128] <= 1
 mccormick3[129]: x[129] + u[129] - r[129] <= 1
 mccormick3[130]: x[130] + u[130] - r[130] <= 1
 mccormick3[131]: x[131] + u[131] - r[131] <= 1
 mccormick3[132]: x[132] + u[132] - r[132] <= 1
 mccormick3[133]: x[133] + u[133] - r[133] <= 1
 mccormick3[134]: x[134] + u[134] - r[134] <= 1
 mccormick3[135]: x[135] + u[135] - r[135] <= 1
 mccormick3[136]: x[136] + u[136] - r[136] <= 1
 mccormick3[137]: x[137] + u[137] - r[137] <= 1
 mccormick3[138]: x[138] + u[138] - r[138] <= 1
 mccormick3[139]: x[139] + u[139] - r[139] <= 1
Bounds
Binaries
 x[0] x[1] x[2] x[3] x[4] x[5] x[6] x[7] x[8] x[9] x[10] x[11] x[12] x[13]
 x[14] x[15] x[16] x[17] x[18] x[19] x[20] x[21] x[22] x[23] x[24] x[25]
 x[26] x[27] x[28] x[29] x[30] x[31] x[32] x[33] x[34] x[35] x[36] x[37]
 x[38] x[39] x[40] x[41] x[42] x[43] x[44] x[45] x[46] x[47] x[48] x[49]
 x[50] x[51] x[52] x[53] x[54] x[55] x[56] x[57] x[58] x[59] x[60] x[61]
 x[62] x[63] x[64] x[65] x[66] x[67] x[68] x[69] x[70] x[71] x[72] x[73]
 x[74] x[75] x[76] x[77] x[78] x[79] x[80] x[81] x[82] x[83] x[84] x[85]
 x[86] x[87] x[88] x[89] x[90] x[91] x[92] x[93] x[94] x[95] x[96] x[97]
 x[98] x[99] x[100] x[101] x[102] x[103] x[104] x[105] x[106] x[107] x[108]
 x[109] x[110] x[111] x[112] x[113] x[114] x[115] x[116] x[117] x[118]
 x[119] x[120] x[121] x[122] x[123] x[124] x[125] x[126] x[127] x[128]
 x[129] x[130] x[131] x[132] x[133] x[134] x[135] x[136] x[137] x[138]
 x[139] u[0] u[1] u[2] u[3] u[4] u[5] u[6] u[7] u[8] u[9] u[10] u[11] u[12]
 u[13] u[14] u[15] u[16] u[17] u[18] u[19] u[20] u[21] u[22] u[23] u[24]
 u[25] u[26] u[27] u[28] u[29] u[30] u[31] u[32] u[33] u[34] u[35] u[36]
 u[37] u[38] u[39] u[40] u[41] u[42] u[43] u[44] u[45] u[46] u[47] u[48]
 u[49] u[50] u[51] u[52] u[53] u[54] u[55] u[56] u[57] u[58] u[59] u[60]
 u[61] u[62] u[63] u[64] u[65] u[66] u[67] u[68] u[69] u[70] u[71] u[72]
 u[73] u[74] u[75] u[76] u[77] u[78] u[79] u[80] u[81] u[82] u[83] u[84]
 u[85] u[86] u[87] u[88] u[89] u[90] u[91] u[92] u[93] u[94] u[95] u[96]
 u[97] u[98] u[99] u[100] u[101] u[102] u[103] u[104] u[105] u[106] u[107]
 u[108] u[109] u[110] u[111] u[112] u[113] u[114] u[115] u[116] u[117]
 u[118] u[119] u[120] u[121] u[122] u[123] u[124] u[125] u[126] u[127]
 u[128] u[129] u[130] u[131] u[132] u[133] u[134] u[135] u[136] u[137]
 u[138] u[139] r[0] r[1] r[2] r[3] r[4] r[5] r[6] r[7] r[8] r[9] r[10]
 r[11] r[12] r[13] r[14] r[15] r[16] r[17] r[18] r[19] r[20] r[21] r[22]
 r[23] r[24] r[25] r[26] r[27] r[28] r[29] r[30] r[31] r[32] r[33] r[34]
 r[35] r[36] r[37] r[38] r[39] r[40] r[41] r[42] r[43] r[44] r[45] r[46]
 r[47] r[48] r[49] r[50] r[51] r[52] r[53] r[54] r[55] r[56] r[57] r[58]
 r[59] r[60] r[61] r[62] r[63] r[64] r[65] r[66] r[67] r[68] r[69] r[70]
 r[71] r[72] r[73] r[74] r[75] r[76] r[77] r[78] r[79] r[80] r[81] r[82]
 r[83] r[84] r[85] r[86] r[87] r[88] r[89] r[90] r[91] r[92] r[93] r[94]
 r[95] r[96] r[97] r[98] r[99] r[100] r[101] r[102] r[103] r[104] r[105]
 r[106] r[107] r[108] r[109] r[110] r[111] r[112] r[113] r[114] r[115]
 r[116] r[117] r[118] r[119] r[120] r[121] r[122] r[123] r[124] r[125]
 r[126] r[127] r[128] r[129] r[130] r[131] r[132] r[133] r[134] r[135]
 r[136] r[137] r[138] r[139]
End
