instances/knapsack/discrete/knapsack_140_8.kp
75757
140
668

67 6.7 56
40 4.0 36
50 5.0 50
15 1.5 6
44 4.4 71
37 3.7 7
93 9.3 47
31 3.1 33
85 8.5 12
14 1.4 36
51 5.1 9
51 5.1 89
28 2.8 85
80 8.0 44
44 4.4 41
40 4.0 46
21 2.1 60
48 4.8 12
33 3.3 48
18 1.8 63
13 1.3 99
91 9.1 17
84 8.4 18
62 6.2 74
88 8.8 31
40 4.0 48
26 2.6 58
55 5.5 33
17 1.7 12
27 2.7 62
33 3.3 7
15 1.5 82
19 1.9 70
9 0.9 77
28 2.8 9
85 8.5 83
96 9.6 75
8 0.8 25
72 7.2 12
22 2.2 61
27 2.7 10
53 5.3 83
58 5.8 59
65 6.5 25
43 4.3 20
70 7.0 33
13 1.3 86
57 5.7 86
51 5.1 54
16 1.6 23
66 6.6 17
88 8.8 96
77 7.7 89
56 5.6 83
16 1.6 14
47 4.7 80
5 0.5 64
90 9.0 82
96 9.6 46
58 5.8 93
28 2.8 66
74 7.4 4
3 0.3 51
66 6.6 7
11 1.1 72
28 2.8 39
80 8.0 19
62 6.2 67
32 3.2 94
65 6.5 15
85 8.5 31
69 6.9 5
62 6.2 11
43 4.3 79
35 3.5 60
24 2.4 60
54 5.4 96
71 7.1 51
76 7.6 46
74 7.4 97
45 4.5 97
13 1.3 36
54 5.4 83
37 3.7 96
85 8.5 35
29 2.9 58
55 5.5 68
56 5.6 21
74 7.4 94
83 8.3 60
80 8.0 96
48 4.8 15
84 8.4 31
7 0.7 94
60 6.0 62
21 2.1 48
25 2.5 3
4 0.4 54
48 4.8 14
100 10.0 98
69 6.9 6
72 7.2 19
58 5.8 64
32 3.2 43
37 3.7 85
74 7.4 41
43 4.3 40
74 7.4 94
86 8.6 12
57 5.7 34
98 9.8 47
19 1.9 96
73 7.3 27
93 9.3 85
49 4.9 12
38 3.8 71
19 1.9 45
5 0.5 11
93 9.3 36
8 0.8 89
23 2.3 7
100 10.0 4
31 3.1 48
34 3.4 41
97 9.7 21
74 7.4 98
71 7.1 62
87 8.7 4
66 6.6 85
83 8.3 90
37 3.7 28
1 0.1 1
94 9.4 6
80 8.0 60
16 1.6 79
46 4.6 37
33 3.3 62
6 0.6 39
17 1.7 9
40 4.0 75

73988
644

[4.583331608832159 3.7441570830173143 4.091496429956063 3.147673900338457 2.9501160430407154 3.663988871378883 1.0709736880908463 0.9222972858092027 1.353938768687794 1.5656842166326312 1.3617454371593878 2.264197791279632 4.078530502527814 1.9233535152402685 0.48837770926077856 0.3004300291311212 2.790050978252769 2.780982121607973 3.8976736332289126 3.7304167045419967 3.2573659309205314 2.9464320866767637 2.8279591745792714 0.7255329041997854 3.6060631598880266 2.9654772747395817 1.9198298328942622 1.6702829644561286 0.2705708377742317 2.6115395782608446 1.8461871743633889 1.085972248422336 1.860660769680915 0.11646841367273165 3.398678006706543 4.28542203527354 3.8151909828084936 2.557027097023302 1.9706274042417642 4.5461911023074135 4.050107873623873 4.369719629536793 1.8423003113009668 3.8575968287962747 1.426561171142249 2.873420698954428 0.5028916310618495 2.45640154175192 1.3229676165894246 1.1412854943792183 3.787744752378492 1.4677550708810212 3.2631936241024695 4.5581736592077835 2.20094336376882 4.379057416239808 0.9833214835066486 4.505654427096591 3.4555340506719516 1.41613907051759 0.17517419293827527 4.20032758201769 1.2755186487995833 2.719890841383312 0.07955452599013688 3.6233472895468193 3.7306316458626783 2.6343387780279395 3.933986931642675 1.1139123806817735 0.053926545904996875 3.1039796264959687 4.551576721504551 0.28427557976811263 2.4329095027711016 3.7006254888741146 3.5665825641849382 1.230712279965589 0.5950900352220097 0.002308607133143825 0.7045369694251741 2.8831164856729803 3.823781664251479 1.36685560162524 3.24417549914605 0.4679107094215722 2.8344414391436974 3.1311058635464484 3.128343188278477 0.09243158289995929 0.5483910405707453 2.761419653682519 1.8626697025408876 2.4395576275423156 0.4306100510663725 1.4226074268540865 0.6750366258271144 4.23429016009932 2.8552349946608957 3.7102609325383087 2.7681810434730276 1.7792131065746435 3.9609251278801008 3.6912429403808624 2.811705183910208 2.5343703617265674 1.865419788524827 2.157585187248094 2.54641274905226 2.955594084416244 1.7235506323064091 1.8943813510398424 4.574369121882999 3.801404418294106 2.4454572086628774 3.9187410421351823 3.859823138420517 0.49334576668793145 4.369824479592388 2.7241549759519454 0.6417725858630828 0.5768452590128544 0.24586813448919 1.2055376283589185 2.1861100055745126 3.7576899463089957 3.970523976647485 1.9687911476111102 2.2430384836166897 0.5198774829636685 3.6758841769578563 2.053855476499597 3.36353787211123 3.3286090883049884 4.059940745385405 2.20023940892935 0.11747982693611751 0.7588318074812963 2.821970482100049 0.5139355916382705]

[41 69 35 48 9 35 54 73 82 11 5 48 45 21 22 42 14 61 66 19 62 57 69 56 10 33 71 57 39 64 51 21 53 42 1 66 61 98 45 20 84 71 63 31 28 64 51 43 52 73 76 77 54 29 94 73 90 28 5 23 18 32 73 20 81 9 38 16 17 99 99 43 27 12 13 14 16 64 90 12 3 95 48 35 7 51 1 53 91 100 18 90 90 41 13 58 82 14 89 69 90 49 67 21 6 35 88 80 12 22 92 8 50 66 58 56 76 14 2 90 73 50 77 28 10 72 69 9 28 48 95 70 84 53 82 91 14 4 19 81]
